Minimize
 
Subject To
 NV_E000: NV000 = 28.76165
 NV_E200: NV200 = 33.796495
 MI_E000: MI000 - ONRF000 + OFRF000 = 4000
 MI_E200: - MF100 + MI200 - ONRF200 + OFRF200 = 0
 ONRF000: ONRF000 = 0
 ONRF200: ONRF200 = 0
 MO1_MIN1_4000: ONRF000 + 100000 MO1_I0000 + MO1_A000 >= 6857.143
 MO1_MIN1_6000: - 100000 MO1_I0000 + MO1_A000 >= -90001
 MO1_MIN2_4000: MO1000 + 100000 MO1_I0001 - MO1_A000 >= -0
 MO1_MIN2_6000: MO1000 - 100000 MO1_I0001 >= -90001
 MO3_NFCQ000: MO3000 = 6857.143
 3.86200: MO2200 = 6857.143
 3.88000: - MI000 + MO1000 - 10000 MF_I1000 <= 0
 3.89000: MF_I0000 + MF_I1000 = 1
 3.90a000: - MI000 + MF_A0000 - 10000 MF_I0000 <= 0
 3.93000: MO2000 - MF_A0000 - 10000 MF_I3000 <= 0
 3.94000: MF_I2000 + MF_I3000 = 1
 3.95a000: - MF_A0000 + MF_A1000 - 10000 MF_I2000 <= 0
 3.96a000: - MO2000 + MF_A1000 - 10000 MF_I3000 <= 0
 3.98000: MO3000 - MF_A1000 - 10000 MF_I5000 <= 0
 3.99000: MF_I4000 + MF_I5000 = 1
 3.100a000: - MF_A1000 + MF_A2000 - 10000 MF_I4000 <= 0
 3.103000: - MF_A2000 - 10000 MF_I7000 <= -6857.143
 3.104000: MF_I6000 + MF_I7000 = 1
 3.105a000: - MF_A2000 + MF_A3000 - 10000 MF_I6000 <= 0
 3.111a000: MF000 - MF_A3000 = 0
 3.88200: - MI200 + MO1200 - 10000 MF_I1200 <= 0
 3.89200: MF_I0200 + MF_I1200 = 1
 3.90a200: - MI200 + MF_A0200 - 10000 MF_I0200 <= 0
 3.91a200: - MO1200 + MF_A0200 - 10000 MF_I1200 <= 0
 3.93200: MO2200 - MF_A0200 - 10000 MF_I3200 <= 0
 3.94200: MF_I2200 + MF_I3200 = 1
 3.95a200: - MF_A0200 + MF_A1200 - 10000 MF_I2200 <= 0
 3.98200: MO3200 - MF_A1200 - 10000 MF_I5200 <= 0
 3.99200: MF_I4200 + MF_I5200 = 1
 3.100a200: - MF_A1200 + MF_A2200 - 10000 MF_I4200 <= 0
 3.101a200: - MO3200 + MF_A2200 - 10000 MF_I5200 <= 0
 3.103200: - MF_A2200 - 10000 MF_I7200 <= -6857.143
 3.104200: MF_I6200 + MF_I7200 = 1
 3.105a200: - MF_A2200 + MF_A3200 - 10000 MF_I6200 <= 0
 3.108200: - MF_A3200 - 10000 MF_I9200 <= -6857.143
 3.109200: MF_I8200 + MF_I9200 = 1
 3.110a200: MF200 - MF_A3200 - 10000 MF_I8200 <= 0
 3.113000: - MF000 + MF100 - ONRF000 + OFRF100 - NV000 + NV010 = 0
 3.113200: - MF200 - ONRF200 - NV200 + NV210 = -4600
Bounds
 MF000 free
 MF100 free
 MF200 free
 MI000 free
 MI200 free
 ONRF000 free
 ONRF200 free
 MO1000 free
 MO1200 free
 MO2000 free
 MO2200 free
 MO3000 free
 MO3200 free
 NV000 free
 NV200 free
 MO1_I0000 free
 MO1_I0001 free
 MO1_A000 free
 MF_A0000 free
 MF_A1000 free
 MF_A2000 free
 MF_A3000 free
 MF_I0000 free
 MF_I1000 free
 MF_I2000 free
 MF_I3000 free
 MF_I4000 free
 MF_I5000 free
 MF_I6000 free
 MF_I7000 free
 MF_A0200 free
 MF_A1200 free
 MF_A2200 free
 MF_A3200 free
 MF_I0200 free
 MF_I1200 free
 MF_I2200 free
 MF_I3200 free
 MF_I4200 free
 MF_I5200 free
 MF_I6200 free
 MF_I7200 free
 MF_I8200 free
 MF_I9200 free
Generals
 MO1_I0000 MO1_I0001 MF_I0000 MF_I1000 MF_I2000 MF_I3000 MF_I4000 MF_I5000
 MF_I6000 MF_I7000 MF_I0200 MF_I1200 MF_I2200 MF_I3200 MF_I4200 MF_I5200
 MF_I6200 MF_I7200 MF_I8200 MF_I9200
End
